
  32    4
  10   10   10   10

   0   0   0   0   0   2 2 4 
   3  10  10  10  10   1 3 
   9  10  10  10  10   1 5 
   3  10  10  10  10   1 5 
   8  10  10  10  10   1 6 
   6  10  10  10  10   1 7 
   7  10  10  10  10   1 8 
   9  10  10  10  10   3 11 10 9 
   9  10  10  10  10   1 12 
   9  10  10  10  10   1 12 
   6  10  10  10  10   1 12 
   3  10  10  10  10   1 13 
   1  10  10  10  10   1 14 
   8  10  10  10  10   1 15 
   9  10  10  10  10   1 16 
   8  10  10  10  10   1 17 
   7  10  10  10  10   2 19 18 
   6  10  10  10  10   2 23 20 
   1  10  10  10  10   2 23 21 
   5  10  10  10  10   1 21 
   7  10  10  10  10   1 22 
   7  10  10  10  10   1 24 
   9  10  10  10  10   1 24 
   4  10  10  10  10   1 25 
   8  10  10  10  10   2 27 26 
   8  10  10  10  10   1 28 
   5  10  10  10  10   1 28 
   3  10  10  10  10   1 29 
   4  10  10  10  10   1 30 
  10  10  10  10  10   1 31 
   8  10  10  10  10   1 32
   0   0   0   0   0   0 
